p tw 100 13501 2 
1 3 
1 4 
1 5 
1 6 
1 7 
1 8 
1 9 
1 10 
1 11 
1 19 
1 21 
1 27 
1 31 
1 33 
1 41 
1 45 
1 51 
1 54 
1 61 
1 62 
1 71 
1 78 
1 81 
1 86 
1 91 
1 100 
2 3 
2 4 
2 5 
2 6 
2 7 
2 8 
2 9 
2 10 
2 12 
2 13 
2 22 
2 30 
2 32 
2 39 
2 42 
2 48 
2 52 
2 55 
2 62 
2 66 
2 72 
2 77 
2 82 
2 84 
2 91 
2 92 
3 4 
3 5 
3 6 
3 7 
3 8 
3 9 
3 10 
3 13 
3 18 
3 21 
3 23 
3 33 
3 40 
3 43 
3 46 
3 52 
3 53 
3 63 
3 65 
3 73 
3 79 
3 83 
3 87 
3 93 
3 94 
4 5 
4 6 
4 7 
4 8 
4 9 
4 10 
4 12 
4 14 
4 24 
4 28 
4 34 
4 36 
4 44 
4 49 
4 51 
4 54 
4 64 
4 70 
4 73 
4 74 
4 84 
4 85 
4 94 
4 97 
5 6 
5 7 
5 8 
5 9 
5 10 
5 15 
5 20 
5 25 
5 29 
5 35 
5 38 
5 45 
5 47 
5 55 
5 56 
5 61 
5 65 
5 74 
5 75 
5 83 
5 85 
5 92 
5 95 
6 7 
6 8 
6 9 
6 10 
6 16 
6 17 
6 22 
6 26 
6 31 
6 36 
6 46 
6 50 
6 53 
6 56 
6 64 
6 66 
6 75 
6 76 
6 86 
6 88 
6 96 
6 99 
7 8 
7 9 
7 10 
7 16 
7 17 
7 25 
7 27 
7 34 
7 37 
7 42 
7 47 
7 57 
7 58 
7 67 
7 69 
7 77 
7 80 
7 81 
7 87 
7 93 
7 97 
8 9 
8 10 
8 15 
8 18 
8 24 
8 28 
8 32 
8 38 
8 43 
8 48 
8 58 
8 59 
8 67 
8 68 
8 71 
8 78 
8 88 
8 90 
8 96 
8 98 
9 10 
9 14 
9 19 
9 23 
9 29 
9 37 
9 39 
9 41 
9 49 
9 59 
9 60 
9 68 
9 69 
9 76 
9 79 
9 82 
9 89 
9 95 
9 99 
10 11 
10 20 
10 26 
10 30 
10 35 
10 40 
10 44 
10 50 
10 57 
10 60 
10 63 
10 70 
10 72 
10 80 
10 89 
10 90 
10 98 
10 100 
11 12 
11 13 
11 14 
11 15 
11 16 
11 17 
11 18 
11 19 
11 20 
11 21 
11 26 
11 31 
11 35 
11 41 
11 44 
11 51 
11 57 
11 61 
11 63 
11 71 
11 72 
11 81 
11 89 
11 91 
11 98 
12 13 
12 14 
12 15 
12 16 
12 17 
12 18 
12 19 
12 20 
12 22 
12 28 
12 32 
12 36 
12 42 
12 49 
12 51 
12 52 
12 62 
12 70 
12 72 
12 73 
12 82 
12 85 
12 92 
12 97 
13 14 
13 15 
13 16 
13 17 
13 18 
13 19 
13 20 
13 23 
13 30 
13 33 
13 39 
13 43 
13 48 
13 53 
13 55 
13 63 
13 66 
13 73 
13 77 
13 83 
13 84 
13 91 
13 93 
14 15 
14 16 
14 17 
14 18 
14 19 
14 20 
14 23 
14 24 
14 34 
14 37 
14 41 
14 44 
14 54 
14 60 
14 64 
14 68 
14 74 
14 76 
14 82 
14 84 
14 94 
14 95 
15 16 
15 17 
15 18 
15 19 
15 20 
15 24 
15 25 
15 32 
15 35 
15 43 
15 45 
15 55 
15 59 
15 65 
15 67 
15 71 
15 75 
15 85 
15 90 
15 95 
15 96 
16 17 
16 18 
16 19 
16 20 
16 25 
16 26 
16 34 
16 36 
16 42 
16 46 
16 56 
16 58 
16 66 
16 69 
16 76 
16 80 
16 81 
16 86 
16 93 
16 96 
17 18 
17 19 
17 20 
17 22 
17 27 
17 31 
17 37 
17 47 
17 50 
17 53 
17 57 
17 64 
17 67 
17 75 
17 77 
17 87 
17 88 
17 97 
17 99 
18 19 
18 20 
18 21 
18 28 
18 38 
18 40 
18 46 
18 48 
18 52 
18 58 
18 65 
18 68 
18 78 
18 79 
18 87 
18 88 
18 94 
18 98 
19 20 
19 27 
19 29 
19 33 
19 39 
19 45 
19 49 
19 54 
19 59 
19 62 
19 69 
19 78 
19 79 
19 86 
19 89 
19 99 
19 100 
20 29 
20 30 
20 38 
20 40 
20 47 
20 50 
20 56 
20 60 
20 61 
20 70 
20 74 
20 80 
20 83 
20 90 
20 92 
20 100 
21 22 
21 23 
21 24 
21 25 
21 26 
21 27 
21 28 
21 29 
21 30 
21 31 
21 40 
21 41 
21 46 
21 51 
21 52 
21 61 
21 65 
21 71 
21 79 
21 81 
21 87 
21 91 
21 94 
22 23 
22 24 
22 25 
22 26 
22 27 
22 28 
22 29 
22 30 
22 31 
22 32 
22 42 
22 50 
22 52 
22 53 
22 62 
22 64 
22 72 
22 75 
22 82 
22 88 
22 92 
22 99 
23 24 
23 25 
23 26 
23 27 
23 28 
23 29 
23 30 
23 33 
23 37 
23 41 
23 43 
23 53 
23 60 
23 63 
23 68 
23 73 
23 76 
23 82 
23 83 
23 93 
23 95 
24 25 
24 26 
24 27 
24 28 
24 29 
24 30 
24 32 
24 34 
24 43 
24 44 
24 54 
24 59 
24 64 
24 67 
24 71 
24 74 
24 84 
24 90 
24 94 
24 96 
25 26 
25 27 
25 28 
25 29 
25 30 
25 34 
25 35 
25 42 
25 45 
25 55 
25 58 
25 65 
25 69 
25 75 
25 80 
25 81 
25 85 
25 93 
25 95 
26 27 
26 28 
26 29 
26 30 
26 35 
26 36 
26 44 
26 46 
26 56 
26 57 
26 63 
26 66 
26 72 
26 76 
26 86 
26 89 
26 96 
26 98 
27 28 
27 29 
27 30 
27 33 
27 37 
27 45 
27 47 
27 54 
27 57 
27 62 
27 67 
27 77 
27 78 
27 86 
27 87 
27 97 
27 100 
28 29 
28 30 
28 36 
28 38 
28 48 
28 49 
28 51 
28 58 
28 68 
28 70 
28 73 
28 78 
28 85 
28 88 
28 97 
28 98 
29 30 
29 38 
29 39 
29 47 
29 49 
29 56 
29 59 
29 61 
29 69 
29 74 
29 79 
29 83 
29 89 
29 92 
29 99 
30 39 
30 40 
30 48 
30 50 
30 55 
30 60 
30 66 
30 70 
30 77 
30 80 
30 84 
30 90 
30 91 
30 100 
31 32 
31 33 
31 34 
31 35 
31 36 
31 37 
31 38 
31 39 
31 40 
31 41 
31 50 
31 51 
31 53 
31 61 
31 64 
31 71 
31 75 
31 81 
31 88 
31 91 
31 99 
32 33 
32 34 
32 35 
32 36 
32 37 
32 38 
32 39 
32 40 
32 42 
32 43 
32 52 
32 59 
32 62 
32 67 
32 71 
32 72 
32 82 
32 90 
32 92 
32 96 
33 34 
33 35 
33 36 
33 37 
33 38 
33 39 
33 40 
33 43 
33 45 
33 53 
33 54 
33 62 
33 63 
33 73 
33 78 
33 83 
33 86 
33 93 
33 100 
34 35 
34 36 
34 37 
34 38 
34 39 
34 40 
34 42 
34 44 
34 54 
34 58 
34 64 
34 69 
34 74 
34 80 
34 81 
34 84 
34 93 
34 94 
35 36 
35 37 
35 38 
35 39 
35 40 
35 44 
35 45 
35 55 
35 57 
35 63 
35 65 
35 72 
35 75 
35 85 
35 89 
35 95 
35 98 
36 37 
36 38 
36 39 
36 40 
36 46 
36 49 
36 51 
36 56 
36 66 
36 70 
36 73 
36 76 
36 85 
36 86 
36 96 
36 97 
37 38 
37 39 
37 40 
37 41 
37 47 
37 57 
37 60 
37 67 
37 68 
37 76 
37 77 
37 82 
37 87 
37 95 
37 97 
38 39 
38 40 
38 47 
38 48 
38 56 
38 58 
38 61 
38 68 
38 74 
38 78 
38 83 
38 88 
38 92 
38 98 
39 40 
39 48 
39 49 
39 55 
39 59 
39 66 
39 69 
39 77 
39 79 
39 84 
39 89 
39 91 
39 99 
40 46 
40 50 
40 52 
40 60 
40 65 
40 70 
40 79 
40 80 
40 87 
40 90 
40 94 
40 100 
41 42 
41 43 
41 44 
41 45 
41 46 
41 47 
41 48 
41 49 
41 50 
41 51 
41 60 
41 61 
41 68 
41 71 
41 76 
41 81 
41 82 
41 91 
41 95 
42 43 
42 44 
42 45 
42 46 
42 47 
42 48 
42 49 
42 50 
42 52 
42 58 
42 62 
42 69 
42 72 
42 80 
42 81 
42 82 
42 92 
42 93 
43 44 
43 45 
43 46 
43 47 
43 48 
43 49 
43 50 
43 53 
43 59 
43 63 
43 67 
43 71 
43 73 
43 83 
43 90 
43 93 
43 96 
44 45 
44 46 
44 47 
44 48 
44 49 
44 50 
44 54 
44 57 
44 63 
44 64 
44 72 
44 74 
44 84 
44 89 
44 94 
44 98 
45 46 
45 47 
45 48 
45 49 
45 50 
45 54 
45 55 
45 62 
45 65 
45 75 
45 78 
45 85 
45 86 
45 95 
45 100 
46 47 
46 48 
46 49 
46 50 
46 52 
46 56 
46 65 
46 66 
46 76 
46 79 
46 86 
46 87 
46 94 
46 96 
47 48 
47 49 
47 50 
47 56 
47 57 
47 61 
47 67 
47 74 
47 77 
47 83 
47 87 
47 92 
47 97 
48 49 
48 50 
48 55 
48 58 
48 66 
48 68 
48 77 
48 78 
48 84 
48 88 
48 91 
48 98 
49 50 
49 51 
49 59 
49 69 
49 70 
49 73 
49 79 
49 85 
49 89 
49 97 
49 99 
50 53 
50 60 
50 64 
50 70 
50 75 
50 80 
50 88 
50 90 
50 99 
50 100 
51 52 
51 53 
51 54 
51 55 
51 56 
51 57 
51 58 
51 59 
51 60 
51 61 
51 70 
51 71 
51 73 
51 81 
51 85 
51 91 
51 97 
52 53 
52 54 
52 55 
52 56 
52 57 
52 58 
52 59 
52 60 
52 62 
52 65 
52 72 
52 79 
52 82 
52 87 
52 92 
52 94 
53 54 
53 55 
53 56 
53 57 
53 58 
53 59 
53 60 
53 63 
53 64 
53 73 
53 75 
53 83 
53 88 
53 93 
53 99 
54 55 
54 56 
54 57 
54 58 
54 59 
54 60 
54 62 
54 64 
54 74 
54 78 
54 84 
54 86 
54 94 
54 100 
55 56 
55 57 
55 58 
55 59 
55 60 
55 65 
55 66 
55 75 
55 77 
55 84 
55 85 
55 91 
55 95 
56 57 
56 58 
56 59 
56 60 
56 61 
56 66 
56 74 
56 76 
56 83 
56 86 
56 92 
56 96 
57 58 
57 59 
57 60 
57 63 
57 67 
57 72 
57 77 
57 87 
57 89 
57 97 
57 98 
58 59 
58 60 
58 68 
58 69 
58 78 
58 80 
58 81 
58 88 
58 93 
58 98 
59 60 
59 67 
59 69 
59 71 
59 79 
59 89 
59 90 
59 96 
59 99 
60 68 
60 70 
60 76 
60 80 
60 82 
60 90 
60 95 
60 100 
61 62 
61 63 
61 64 
61 65 
61 66 
61 67 
61 68 
61 69 
61 70 
61 71 
61 74 
61 81 
61 83 
61 91 
61 92 
62 63 
62 64 
62 65 
62 66 
62 67 
62 68 
62 69 
62 70 
62 72 
62 78 
62 82 
62 86 
62 92 
62 100 
63 64 
63 65 
63 66 
63 67 
63 68 
63 69 
63 70 
63 72 
63 73 
63 83 
63 89 
63 93 
63 98 
64 65 
64 66 
64 67 
64 68 
64 69 
64 70 
64 74 
64 75 
64 84 
64 88 
64 94 
64 99 
65 66 
65 67 
65 68 
65 69 
65 70 
65 75 
65 79 
65 85 
65 87 
65 94 
65 95 
66 67 
66 68 
66 69 
66 70 
66 76 
66 77 
66 84 
66 86 
66 91 
66 96 
67 68 
67 69 
67 70 
67 71 
67 77 
67 87 
67 90 
67 96 
67 97 
68 69 
68 70 
68 76 
68 78 
68 82 
68 88 
68 95 
68 98 
69 70 
69 79 
69 80 
69 81 
69 89 
69 93 
69 99 
70 73 
70 80 
70 85 
70 90 
70 97 
70 100 
71 72 
71 73 
71 74 
71 75 
71 76 
71 77 
71 78 
71 79 
71 80 
71 81 
71 90 
71 91 
71 96 
72 73 
72 74 
72 75 
72 76 
72 77 
72 78 
72 79 
72 80 
72 82 
72 89 
72 92 
72 98 
73 74 
73 75 
73 76 
73 77 
73 78 
73 79 
73 80 
73 83 
73 85 
73 93 
73 97 
74 75 
74 76 
74 77 
74 78 
74 79 
74 80 
74 83 
74 84 
74 92 
74 94 
75 76 
75 77 
75 78 
75 79 
75 80 
75 85 
75 88 
75 95 
75 99 
76 77 
76 78 
76 79 
76 80 
76 82 
76 86 
76 95 
76 96 
77 78 
77 79 
77 80 
77 84 
77 87 
77 91 
77 97 
78 79 
78 80 
78 86 
78 88 
78 98 
78 100 
79 80 
79 87 
79 89 
79 94 
79 99 
80 81 
80 90 
80 93 
80 100 
81 82 
81 83 
81 84 
81 85 
81 86 
81 87 
81 88 
81 89 
81 90 
81 91 
81 93 
82 83 
82 84 
82 85 
82 86 
82 87 
82 88 
82 89 
82 90 
82 92 
82 95 
83 84 
83 85 
83 86 
83 87 
83 88 
83 89 
83 90 
83 92 
83 93 
84 85 
84 86 
84 87 
84 88 
84 89 
84 90 
84 91 
84 94 
85 86 
85 87 
85 88 
85 89 
85 90 
85 95 
85 97 
86 87 
86 88 
86 89 
86 90 
86 96 
86 100 
87 88 
87 89 
87 90 
87 94 
87 97 
88 89 
88 90 
88 98 
88 99 
89 90 
89 98 
89 99 
90 96 
90 100 
91 92 
91 93 
91 94 
91 95 
91 96 
91 97 
91 98 
91 99 
91 100 
92 93 
92 94 
92 95 
92 96 
92 97 
92 98 
92 99 
92 100 
93 94 
93 95 
93 96 
93 97 
93 98 
93 99 
93 100 
94 95 
94 96 
94 97 
94 98 
94 99 
94 100 
95 96 
95 97 
95 98 
95 99 
95 100 
96 97 
96 98 
96 99 
96 100 
97 98 
97 99 
97 100 
98 99 
98 100 
99 100 
